letting n =  10
letting blocks =  [[1, 1], [1, 5], [1, 7], [1, 9], [1, 10], [2, 2], [2, 4], [2, 6], [2, 8], [2, 9], [2, 10], [3, 3], [3, 4], [3, 5], [3, 7], [3, 8], [3, 9], [4, 3], [4, 8], [4, 9], [5, 2], [5, 3], [5, 5], [5, 6], [5, 7], [5, 8], [6, 2], [6, 3], [6, 4], [6, 6], [6, 7], [6, 10], [7, 1], [7, 3], [7, 5], [7, 6], [7, 7], [7, 8], [8, 1], [8, 2], [8, 4], [8, 5], [8, 9], [8, 10], [9, 1], [9, 3], [9, 4], [9, 5], [9, 6], [9, 10], [10, 1], [10, 2], [10, 4], [10, 6], [10, 8], [10, 10]]
